# define units used in simulation
units real

# allow use of charges and bonds in the system
atom_style full

# define dimensionality of the simulation cell
dimension 3

# use periodic boundary conditions
boundary p p p

# bonded interactions: bond stretching and angle bending in harmonic form
bond_style harmonic
angle_style harmonic

# neighbor list skin distance 3Å
neighbor 3.0 bin

# neighbor list build:
neigh_modify every 2 delay 0 check yes one 3000

# nonbonded interactions: Lennard-Jones with 12.5Åcut-off and long range Coulomb
pair_style reax/c NULL
#lj/cut/coul/long 12.5
pair_modify mix arithmetic

# ewald summation method for long range Coulomb
#kspace_style ewald 1.0e-4

# read in structural information: atom coordinates, types and charges and the
#bonded information
read_data system.data

# group together elements in clay
group clay type 1 2 3 4 5
# generate initial velocities for atoms using gaussian distribution,
#target temperature 298K
velocity all create 298.0 105112 dist gaussian

# initial minimization
pair_coeff * * ffield.reax Si O Al H X
fix 1 all qeq/reax 1 0.0 10.0 1.0e-6 reax/c
minimize 1.0e-4 1.0e-6 100 1000
# use NVE ensemble in first equilibration
fix 2 all nve
# system temperature 298K
fix 3 all langevin 298.0 298.0 100 123345

# fix the center of mass for MMT
fix COM clay recenter INIT INIT INIT units box

# output (every 100 time steps) file: atom info, coordinates and velocities
dump NVE all custom 100 dump.MMT_w1_NVE id mol type q mass x y z vx vy vz

# info echoed every 2000 time steps including temperature and pressure of system
thermo 2000
thermo_style custom step dt spcpu temp press

# set timestep: 0.001fs
timestep 0.001

# run for 10 000 time steps= 10fs
run 10000

# run with 0.5fs time step for 100 000 steps= 50ps


timestep 0.5
run 100000

# end equilibration run
undump NVE
unfix 2
unfix 3

# use NPT ensemble in production run, system temperature 298K and
#pressure 1atm
fix 1 all npt temp 298 298 100 aniso 1 1 1000

# output (every 100 time steps) file: atom info, coordinates and velocities
dump NPT all custom 100 dump.MMT_w1_NPT id mol type q mass x y z vx vy
vz

# run with 1fs time step for 500 000 steps= 500ps
timestep 1.0
run 500000
