	pair_coeff * * ffield.reax
    bond_coeff   1     harmonic                 600.0   1.0 
    angle_coeff  1   harmonic                 75.0    109.47
pair_coeff   6 6  lj/cut/coul/long  0.1553  3.166
pair_coeff   7 7  lj/cut/coul/long  0.0     0.0
    group spce type  6  7
    fix fShakeSPCE spce shake 0.0001 10 100 b 1 a 1
    # (Remember to "unfix" fShakeSPCE during minimization.)
