	pair_coeff * * ffield.reax
    bond_coeff   @/bond:SPCE/OH     harmonic                 600.0   1.0 
    angle_coeff  @/angle:SPCE/HOH   harmonic                 75.0    109.47
pair_coeff   @/atom:SPCE/O @/atom:SPCE/O  lj/cut/coul/long  0.1553  3.166
pair_coeff   @/atom:SPCE/H @/atom:SPCE/H  lj/cut/coul/long  0.0     0.0
    group spce type  @/atom:SPCE/O  @/atom:SPCE/H
    fix fShakeSPCE spce shake 0.0001 10 100 b @/bond:SPCE/OH a @/angle:SPCE/HOH
    # (Remember to "unfix" fShakeSPCE during minimization.)
