	
	units metal
	atom_style full
	pair_style reax/c NULL
